Route #1: 28 12 40 26
Route #2: 33 29 3 50 24
Route #3: 2 21 22 4 25
Route #4: 18 8 46 17
Route #5: 27 31 30 9 20 32
Route #6: 42 15 41 43 13
Route #7: 14 44 38 37
Route #8: 45 47 7 10 1
Route #9: 39 23 34 35
Route #10: 36 11 19 49 48
Route #11: 5 16 6
Cost 92928.34